DIMACS2
10 156 24 117 52 3 115 10 61 89 85
p edge 160 1240
e 0 89 48.0
e 0 9 2.0
e 0 82 2.0
e 0 55 1.0
e 0 37 1.0
e 0 41 1.0
e 0 7 1.0
e 0 93 1.0
e 1 54 1.0
e 1 23 1.0
e 1 58 1.0
e 1 153 2.0
e 1 81 1.0
e 1 59 1.0
e 1 157 1.0
e 1 154 1.0
e 2 149 1.0
e 2 150 1.0
e 2 94 1.0
e 2 1 1.0
e 2 21 2.0
e 2 39 1.0
e 2 73 1.0
e 3 44 38.0
e 3 84 33.0
e 3 51 7.0
e 3 8 31.0
e 3 100 26.0
e 3 110 32.0
e 3 62 34.0
e 3 121 16.0
e 3 85 20.0
e 3 115 37.0
e 3 10 25.0
e 3 61 45.0
e 3 89 10.0
e 4 118 1.0
e 4 99 1.0
e 4 66 1.0
e 4 139 2.0
e 4 120 2.0
e 4 115 47.0
e 4 46 2.0
e 4 119 1.0
e 5 96 2.0
e 5 32 1.0
e 5 153 1.0
e 5 103 1.0
e 5 154 1.0
e 5 68 3.0
e 5 120 1.0
e 5 121 1.0
e 6 116 1.0
e 6 107 1.0
e 6 5 1.0
e 6 133 1.0
e 6 34 1.0
e 6 125 1.0
e 6 104 1.0
e 6 113 1.0
e 7 155 2.0
e 7 119 1.0
e 7 95 1.0
e 7 8 3.0
e 7 46 1.0
e 7 132 1.0
e 7 122 1.0
e 7 131 1.0
e 8 23 1.0
e 8 67 1.0
e 8 59 1.0
e 8 129 1.0
e 8 9 1.0
e 8 0 2.0
e 8 107 1.0
e 9 92 1.0
e 9 103 1.0
e 9 141 1.0
e 9 42 2.0
e 9 23 2.0
e 9 14 1.0
e 9 131 2.0
e 9 50 1.0
e 10 34 7.0
e 10 114 49.0
e 10 57 26.0
e 10 32 35.0
e 10 15 5.0
e 10 125 25.0
e 10 0 33.0
e 10 153 1.0
e 11 56 2.0
e 11 75 1.0
e 11 40 1.0
e 11 9 2.0
e 11 147 1.0
e 11 157 1.0
e 11 43 1.0
e 11 112 1.0
e 12 0 1.0
e 12 130 2.0
e 12 126 1.0
e 12 136 2.0
e 12 119 3.0
e 12 103 1.0
e 12 10 28.0
e 13 152 1.0
e 13 4 1.0
e 13 39 1.0
e 13 7 1.0
e 13 137 1.0
e 13 82 2.0
e 13 10 34.0
e 13 131 2.0
e 14 125 2.0
e 14 82 2.0
e 14 105 1.0
e 14 92 1.0
e 14 52 8.0
e 14 101 2.0
e 14 38 2.0
e 14 2 1.0
e 15 106 1.0
e 15 102 1.0
e 15 24 16.0
e 15 140 1.0
e 15 33 1.0
e 15 105 2.0
e 15 61 8.0
e 16 73 1.0
e 16 88 2.0
e 16 119 1.0
e 16 10 46.0
e 16 54 1.0
e 16 19 2.0
e 16 60 1.0
e 17 45 1.0
e 17 111 1.0
e 17 121 1.0
e 17 146 1.0
e 17 105 1.0
e 17 63 1.0
e 17 41 2.0
e 17 15 1.0
e 18 61 8.0
e 18 31 1.0
e 18 141 2.0
e 18 114 2.0
e 18 110 1.0
e 18 81 3.0
e 18 127 2.0
e 18 11 1.0
e 19 91 1.0
e 19 72 1.0
e 19 121 1.0
e 19 83 1.0
e 19 1 1.0
e 19 39 2.0
e 19 27 1.0
e 19 142 1.0
e 20 157 1.0
e 20 49 1.0
e 20 146 1.0
e 20 95 1.0
e 20 51 1.0
e 20 150 2.0
e 20 147 2.0
e 20 24 22.0
e 21 110 1.0
e 21 136 1.0
e 21 73 1.0
e 21 13 2.0
e 21 14 2.0
e 21 88 1.0
e 21 139 1.0
e 22 81 2.0
e 22 145 1.0
e 22 61 8.0
e 22 129 1.0
e 22 121 1.0
e 22 78 1.0
e 22 68 1.0
e 22 15 1.0
e 23 95 1.0
e 23 143 3.0
e 23 51 1.0
e 23 53 2.0
e 23 90 1.0
e 23 38 1.0
e 23 155 1.0
e 23 33 1.0
e 24 143 36.0
e 24 104 26.0
e 24 117 34.0
e 24 109 34.0
e 24 36 17.0
e 24 9 1.0
e 24 119 32.0
e 24 34 12.0
e 25 36 2.0
e 25 90 1.0
e 25 118 1.0
e 25 87 1.0
e 25 20 1.0
e 25 127 1.0
e 25 155 1.0
e 25 133 1.0
e 26 86 1.0
e 26 33 1.0
e 26 44 2.0
e 26 89 3.0
e 26 48 1.0
e 26 87 1.0
e 26 106 1.0
e 26 73 1.0
e 27 120 3.0
e 27 141 1.0
e 27 92 2.0
e 27 90 1.0
e 27 4 1.0
e 27 53 1.0
e 27 25 1.0
e 27 118 1.0
e 28 151 1.0
e 28 23 1.0
e 28 131 2.0
e 28 65 2.0
e 28 141 3.0
e 28 57 2.0
e 28 156 22.0
e 28 5 2.0
e 29 38 1.0
e 29 56 2.0
e 29 66 1.0
e 29 85 38.0
e 29 121 2.0
e 29 154 2.0
e 29 119 1.0
e 29 157 1.0
e 30 77 2.0
e 30 118 1.0
e 30 82 3.0
e 30 37 2.0
e 30 152 3.0
e 30 69 2.0
e 30 86 1.0
e 30 61 45.0
e 31 21 1.0
e 31 85 3.0
e 31 29 1.0
e 31 79 1.0
e 31 10 26.0
e 31 128 1.0
e 31 70 1.0
e 32 118 1.0
e 32 61 45.0
e 32 11 1.0
e 32 102 1.0
e 32 62 1.0
e 32 21 1.0
e 32 48 1.0
e 33 49 1.0
e 33 75 1.0
e 33 89 27.0
e 33 112 1.0
e 33 11 2.0
e 33 93 2.0
e 33 144 1.0
e 33 46 1.0
e 34 43 1.0
e 34 128 1.0
e 34 29 1.0
e 34 44 1.0
e 34 55 1.0
e 34 154 1.0
e 34 144 1.0
e 34 48 1.0
e 35 83 1.0
e 35 77 1.0
e 35 86 1.0
e 35 121 1.0
e 35 42 1.0
e 35 3 30.0
e 35 158 1.0
e 35 122 2.0
e 36 33 2.0
e 36 44 1.0
e 36 28 1.0
e 36 12 1.0
e 36 133 1.0
e 36 54 2.0
e 36 8 2.0
e 36 5 1.0
e 37 40 1.0
e 37 52 12.0
e 37 153 2.0
e 37 84 1.0
e 37 150 1.0
e 37 90 1.0
e 37 15 1.0
e 37 6 1.0
e 38 68 1.0
e 38 37 1.0
e 38 92 2.0
e 38 1 1.0
e 38 30 2.0
e 38 76 3.0
e 38 86 1.0
e 38 83 1.0
e 39 43 1.0
e 39 135 1.0
e 39 129 1.0
e 39 78 2.0
e 39 70 1.0
e 39 30 1.0
e 39 92 2.0
e 39 26 1.0
e 40 38 1.0
e 40 2 1.0
e 40 136 1.0
e 40 103 2.0
e 40 33 2.0
e 40 24 10.0
e 40 64 1.0
e 40 75 1.0
e 41 16 2.0
e 41 97 2.0
e 41 112 1.0
e 41 30 1.0
e 41 155 2.0
e 41 65 1.0
e 41 50 3.0
e 41 54 2.0
e 42 59 1.0
e 42 146 1.0
e 42 96 1.0
e 42 115 3.0
e 42 4 1.0
e 42 50 1.0
e 42 24 27.0
e 42 63 1.0
e 43 110 1.0
e 43 66 1.0
e 43 56 2.0
e 43 143 1.0
e 43 3 24.0
e 43 77 1.0
e 43 58 1.0
e 43 19 2.0
e 44 51 2.0
e 44 78 1.0
e 44 39 1.0
e 44 107 1.0
e 44 29 1.0
e 44 81 2.0
e 44 2 1.0
e 45 107 1.0
e 45 6 1.0
e 45 67 1.0
e 45 88 1.0
e 45 158 1.0
e 45 60 1.0
e 45 19 2.0
e 45 118 1.0
e 46 145 1.0
e 46 155 1.0
e 46 11 1.0
e 46 2 1.0
e 46 141 1.0
e 46 156 37.0
e 46 18 1.0
e 47 71 2.0
e 47 41 1.0
e 47 102 1.0
e 47 96 2.0
e 47 145 1.0
e 47 115 18.0
e 47 127 1.0
e 47 111 2.0
e 48 156 13.0
e 48 154 1.0
e 48 45 2.0
e 48 90 1.0
e 48 19 2.0
e 48 150 1.0
e 48 12 1.0
e 48 123 1.0
e 49 7 1.0
e 49 22 2.0
e 49 141 1.0
e 49 5 1.0
e 49 82 1.0
e 49 155 2.0
e 49 144 1.0
e 49 145 1.0
e 50 119 1.0
e 50 52 39.0
e 50 78 2.0
e 50 154 1.0
e 50 100 1.0
e 50 109 1.0
e 50 105 3.0
e 50 80 1.0
e 51 130 1.0
e 51 127 1.0
e 51 8 1.0
e 51 17 1.0
e 51 10 41.0
e 51 38 1.0
e 51 68 2.0
e 51 104 1.0
e 52 20 13.0
e 52 74 44.0
e 52 73 4.0
e 52 5 7.0
e 52 148 36.0
e 52 41 20.0
e 52 61 46.0
e 52 34 20.0
e 52 3 39.0
e 52 24 23.0
e 53 108 1.0
e 53 129 2.0
e 53 30 1.0
e 53 44 2.0
e 53 120 1.0
e 53 85 21.0
e 53 49 2.0
e 53 124 2.0
e 54 38 1.0
e 54 40 1.0
e 54 27 1.0
e 54 72 1.0
e 54 132 1.0
e 54 69 1.0
e 54 80 1.0
e 54 33 2.0
e 55 103 1.0
e 55 141 1.0
e 55 36 2.0
e 55 30 2.0
e 55 102 1.0
e 55 126 1.0
e 55 96 1.0
e 56 115 14.0
e 56 23 1.0
e 56 121 1.0
e 56 155 1.0
e 56 107 1.0
e 56 99 2.0
e 56 94 2.0
e 56 113 1.0
e 57 152 1.0
e 57 41 1.0
e 57 90 1.0
e 57 8 1.0
e 57 73 1.0
e 57 13 1.0
e 57 102 2.0
e 57 44 2.0
e 58 29 2.0
e 58 85 2.0
e 58 17 1.0
e 58 88 1.0
e 58 41 2.0
e 58 89 46.0
e 58 68 2.0
e 58 78 1.0
e 59 50 1.0
e 59 69 1.0
e 59 86 1.0
e 59 28 1.0
e 59 109 2.0
e 59 34 1.0
e 59 48 1.0
e 59 46 1.0
e 60 11 1.0
e 60 90 1.0
e 60 46 1.0
e 60 67 1.0
e 60 63 1.0
e 60 99 1.0
e 60 28 3.0
e 61 129 6.0
e 61 156 42.0
e 61 43 26.0
e 61 26 36.0
e 61 66 22.0
e 61 35 14.0
e 61 21 9.0
e 62 138 1.0
e 62 28 1.0
e 62 0 1.0
e 62 73 2.0
e 62 111 1.0
e 62 95 2.0
e 62 42 3.0
e 63 144 1.0
e 63 118 1.0
e 63 156 15.0
e 63 112 1.0
e 63 23 1.0
e 63 117 10.0
e 63 12 2.0
e 64 76 2.0
e 64 61 20.0
e 64 118 1.0
e 64 58 1.0
e 64 62 1.0
e 64 15 1.0
e 64 78 1.0
e 64 129 1.0
e 65 71 1.0
e 65 123 1.0
e 65 79 1.0
e 65 37 1.0
e 65 143 2.0
e 65 91 1.0
e 65 21 1.0
e 66 139 1.0
e 66 24 20.0
e 66 42 1.0
e 66 11 1.0
e 66 7 1.0
e 66 109 1.0
e 66 128 1.0
e 66 65 1.0
e 67 55 1.0
e 67 145 1.0
e 67 139 1.0
e 67 81 1.0
e 67 69 1.0
e 67 62 1.0
e 67 93 1.0
e 68 36 1.0
e 68 1 1.0
e 68 153 1.0
e 68 85 37.0
e 68 101 1.0
e 68 25 2.0
e 68 91 1.0
e 68 102 1.0
e 69 157 1.0
e 69 153 2.0
e 69 23 2.0
e 69 151 1.0
e 69 110 2.0
e 69 101 2.0
e 69 58 1.0
e 69 19 1.0
e 70 14 2.0
e 70 147 2.0
e 70 118 1.0
e 70 107 1.0
e 70 32 1.0
e 70 25 1.0
e 70 93 1.0
e 70 97 1.0
e 71 67 1.0
e 71 33 1.0
e 71 28 2.0
e 71 138 2.0
e 71 60 1.0
e 71 136 1.0
e 71 52 11.0
e 71 145 1.0
e 72 16 2.0
e 72 142 1.0
e 72 33 1.0
e 72 120 1.0
e 72 10 31.0
e 72 85 16.0
e 72 81 1.0
e 72 87 1.0
e 73 7 1.0
e 73 83 1.0
e 73 120 2.0
e 73 69 2.0
e 73 147 2.0
e 73 43 1.0
e 73 47 2.0
e 73 0 1.0
e 74 79 1.0
e 74 106 3.0
e 74 120 2.0
e 74 63 1.0
e 74 126 1.0
e 74 26 1.0
e 74 61 47.0
e 74 50 1.0
e 75 47 2.0
e 75 93 2.0
e 75 138 1.0
e 75 127 3.0
e 75 72 2.0
e 75 9 2.0
e 75 156 47.0
e 75 143 1.0
e 76 15 1.0
e 76 140 3.0
e 76 109 1.0
e 76 34 2.0
e 76 152 1.0
e 76 132 1.0
e 76 29 1.0
e 76 111 2.0
e 77 137 1.0
e 77 116 1.0
e 77 132 1.0
e 77 58 1.0
e 77 94 1.0
e 77 71 1.0
e 77 131 1.0
e 77 110 1.0
e 78 60 2.0
e 78 126 1.0
e 78 112 2.0
e 78 92 2.0
e 78 138 1.0
e 78 101 3.0
e 78 41 2.0
e 79 113 1.0
e 79 66 1.0
e 79 16 1.0
e 79 25 1.0
e 79 61 31.0
e 79 43 1.0
e 79 18 1.0
e 79 100 1.0
e 80 0 1.0
e 80 107 1.0
e 80 93 1.0
e 80 83 1.0
e 80 17 1.0
e 80 115 23.0
e 80 56 1.0
e 80 10 30.0
e 81 101 1.0
e 81 128 1.0
e 81 121 1.0
e 81 55 1.0
e 81 133 1.0
e 81 59 1.0
e 81 49 1.0
e 81 153 1.0
e 82 17 1.0
e 82 78 2.0
e 82 58 2.0
e 82 135 1.0
e 82 85 11.0
e 82 48 1.0
e 82 66 1.0
e 82 93 1.0
e 83 94 1.0
e 83 154 1.0
e 83 101 1.0
e 83 89 7.0
e 83 139 1.0
e 83 42 1.0
e 83 110 1.0
e 83 85 33.0
e 84 63 1.0
e 84 66 1.0
e 84 120 3.0
e 84 130 1.0
e 84 38 1.0
e 84 13 1.0
e 84 4 2.0
e 84 103 1.0
e 85 74 12.0
e 85 138 12.0
e 85 154 42.0
e 85 77 11.0
e 85 27 38.0
e 85 134 30.0
e 85 73 18.0
e 85 90 18.0
e 86 13 1.0
e 86 47 1.0
e 86 131 1.0
e 86 79 1.0
e 86 78 2.0
e 86 96 1.0
e 86 9 2.0
e 86 32 1.0
e 87 64 1.0
e 87 135 1.0
e 87 31 1.0
e 87 44 1.0
e 87 35 1.0
e 87 48 1.0
e 87 65 1.0
e 87 67 1.0
e 88 99 1.0
e 88 71 1.0
e 88 79 1.0
e 88 103 1.0
e 88 59 1.0
e 88 36 2.0
e 88 29 1.0
e 88 113 1.0
e 89 19 42.0
e 89 100 16.0
e 89 151 8.0
e 89 69 36.0
e 89 92 30.0
e 89 46 4.0
e 89 107 37.0
e 89 73 17.0
e 89 85 25.0
e 90 39 1.0
e 90 58 1.0
e 90 109 2.0
e 90 24 47.0
e 90 119 1.0
e 90 144 1.0
e 90 134 1.0
e 91 94 1.0
e 91 79 1.0
e 91 113 1.0
e 91 87 1.0
e 91 146 1.0
e 91 139 1.0
e 91 134 1.0
e 91 70 1.0
e 92 128 1.0
e 92 77 1.0
e 92 146 1.0
e 92 154 1.0
e 92 83 1.0
e 92 19 2.0
e 92 67 2.0
e 93 57 1.0
e 93 157 2.0
e 93 102 1.0
e 93 145 1.0
e 93 10 30.0
e 93 77 1.0
e 93 54 2.0
e 94 115 39.0
e 94 119 1.0
e 94 41 2.0
e 94 61 17.0
e 94 63 1.0
e 94 122 1.0
e 94 22 1.0
e 94 79 1.0
e 95 76 1.0
e 95 120 1.0
e 95 102 1.0
e 95 127 1.0
e 95 101 2.0
e 95 25 2.0
e 95 156 8.0
e 95 123 2.0
e 96 83 1.0
e 96 128 1.0
e 96 22 2.0
e 96 44 2.0
e 96 59 1.0
e 96 113 1.0
e 96 65 3.0
e 97 100 1.0
e 97 108 2.0
e 97 4 2.0
e 97 63 1.0
e 97 130 1.0
e 97 0 1.0
e 97 76 1.0
e 97 87 1.0
e 98 87 1.0
e 98 121 1.0
e 98 78 1.0
e 98 82 2.0
e 98 142 1.0
e 98 26 1.0
e 98 74 1.0
e 98 13 1.0
e 99 141 1.0
e 99 152 1.0
e 99 81 1.0
e 99 30 1.0
e 99 105 1.0
e 99 6 1.0
e 99 150 2.0
e 99 24 21.0
e 100 130 1.0
e 100 98 1.0
e 100 118 1.0
e 100 134 1.0
e 100 153 1.0
e 100 105 2.0
e 100 4 3.0
e 100 7 1.0
e 101 54 1.0
e 101 37 1.0
e 101 119 1.0
e 101 90 1.0
e 101 93 1.0
e 101 109 2.0
e 101 148 1.0
e 102 2 1.0
e 102 36 1.0
e 102 11 1.0
e 102 135 1.0
e 102 100 1.0
e 102 79 1.0
e 102 59 1.0
e 102 31 1.0
e 103 41 1.0
e 103 123 1.0
e 103 72 1.0
e 103 137 1.0
e 103 102 1.0
e 103 110 1.0
e 103 51 1.0
e 104 5 1.0
e 104 85 48.0
e 104 9 2.0
e 104 117 5.0
e 104 8 2.0
e 104 93 2.0
e 104 120 2.0
e 105 134 2.0
e 105 117 41.0
e 105 57 1.0
e 105 152 1.0
e 105 67 1.0
e 105 111 1.0
e 106 119 1.0
e 106 45 2.0
e 106 122 1.0
e 106 56 1.0
e 106 46 2.0
e 106 149 1.0
e 106 24 5.0
e 106 110 2.0
e 107 137 1.0
e 107 52 15.0
e 107 55 1.0
e 107 0 1.0
e 107 40 2.0
e 107 144 1.0
e 107 69 2.0
e 108 150 2.0
e 108 55 2.0
e 108 79 1.0
e 108 84 1.0
e 108 10 23.0
e 108 41 1.0
e 108 112 2.0
e 109 151 1.0
e 109 86 1.0
e 109 64 2.0
e 109 123 1.0
e 109 147 1.0
e 109 139 1.0
e 109 7 1.0
e 109 33 1.0
e 110 115 37.0
e 110 138 2.0
e 110 12 2.0
e 110 54 1.0
e 110 27 1.0
e 110 88 1.0
e 110 47 1.0
e 111 65 2.0
e 111 134 1.0
e 111 20 1.0
e 111 125 1.0
e 111 43 1.0
e 111 27 1.0
e 112 57 3.0
e 112 10 20.0
e 112 12 3.0
e 112 66 2.0
e 112 23 2.0
e 112 155 2.0
e 112 42 2.0
e 113 44 1.0
e 113 49 1.0
e 113 78 2.0
e 113 143 1.0
e 113 9 1.0
e 113 114 1.0
e 113 35 1.0
e 113 116 1.0
e 114 41 2.0
e 114 155 1.0
e 114 157 1.0
e 114 103 1.0
e 114 146 1.0
e 114 84 1.0
e 114 118 1.0
e 114 62 1.0
e 115 0 48.0
e 115 77 28.0
e 115 124 28.0
e 115 76 36.0
e 115 119 44.0
e 115 156 21.0
e 115 71 13.0
e 115 66 36.0
e 116 123 1.0
e 116 97 1.0
e 116 118 2.0
e 116 32 1.0
e 116 104 1.0
e 116 132 1.0
e 116 34 1.0
e 116 26 1.0
e 117 84 16.0
e 117 65 4.0
e 117 122 47.0
e 117 116 6.0
e 117 88 24.0
e 117 78 10.0
e 117 131 20.0
e 117 149 39.0
e 117 115 4.0
e 117 3 41.0
e 117 52 29.0
e 118 105 1.0
e 118 56 1.0
e 118 90 1.0
e 118 21 1.0
e 118 44 1.0
e 118 124 1.0
e 118 47 2.0
e 119 124 1.0
e 119 38 1.0
e 119 92 1.0
e 119 133 1.0
e 119 15 1.0
e 119 77 1.0
e 119 134 1.0
e 120 127 1.0
e 120 15 2.0
e 120 40 1.0
e 120 142 2.0
e 120 89 11.0
e 120 129 1.0
e 121 89 10.0
e 121 124 3.0
e 121 135 1.0
e 121 83 1.0
e 121 126 1.0
e 121 55 1.0
e 121 72 1.0
e 121 110 1.0
e 122 11 2.0
e 122 124 1.0
e 122 104 1.0
e 122 77 1.0
e 122 71 1.0
e 122 131 1.0
e 122 97 2.0
e 122 38 2.0
e 123 153 1.0
e 123 149 1.0
e 123 31 1.0
e 123 56 1.0
e 123 112 1.0
e 123 17 1.0
e 123 46 1.0
e 123 141 1.0
e 124 0 3.0
e 124 93 1.0
e 124 76 2.0
e 124 66 1.0
e 124 37 1.0
e 124 39 1.0
e 124 22 2.0
e 124 17 1.0
e 125 5 2.0
e 125 48 1.0
e 125 65 1.0
e 125 47 2.0
e 125 67 1.0
e 125 92 1.0
e 125 3 1.0
e 126 73 1.0
e 126 58 1.0
e 126 30 2.0
e 126 33 2.0
e 126 47 3.0
e 126 107 1.0
e 126 19 1.0
e 126 41 1.0
e 127 67 1.0
e 127 100 1.0
e 127 91 1.0
e 127 84 1.0
e 127 101 1.0
e 127 113 1.0
e 127 19 1.0
e 128 102 1.0
e 128 48 1.0
e 128 86 1.0
e 128 109 1.0
e 128 110 1.0
e 128 49 1.0
e 128 68 1.0
e 128 11 1.0
e 129 153 2.0
e 129 95 2.0
e 129 58 1.0
e 129 4 2.0
e 129 88 2.0
e 129 18 1.0
e 129 0 1.0
e 130 102 1.0
e 130 41 1.0
e 130 46 1.0
e 130 127 1.0
e 130 71 1.0
e 130 155 2.0
e 130 54 1.0
e 130 110 1.0
e 131 113 1.0
e 131 37 1.0
e 131 84 1.0
e 131 43 1.0
e 131 24 49.0
e 131 41 1.0
e 131 114 1.0
e 131 156 30.0
e 132 0 1.0
e 132 88 1.0
e 132 156 12.0
e 132 39 1.0
e 132 92 3.0
e 132 53 2.0
e 132 30 1.0
e 132 115 17.0
e 133 91 1.0
e 133 138 2.0
e 133 19 1.0
e 133 5 1.0
e 133 152 3.0
e 133 70 1.0
e 133 57 2.0
e 133 54 1.0
e 134 13 1.0
e 134 135 1.0
e 134 152 1.0
e 134 58 1.0
e 134 126 1.0
e 134 158 1.0
e 134 115 4.0
e 134 36 1.0
e 135 15 1.0
e 135 20 1.0
e 135 70 1.0
e 135 136 2.0
e 135 63 1.0
e 135 88 1.0
e 135 155 2.0
e 136 64 2.0
e 136 156 2.0
e 136 127 1.0
e 136 105 1.0
e 136 63 1.0
e 136 39 1.0
e 136 124 1.0
e 136 151 1.0
e 137 143 2.0
e 137 26 1.0
e 137 47 1.0
e 137 121 1.0
e 137 17 1.0
e 137 21 1.0
e 137 2 1.0
e 138 30 2.0
e 138 9 1.0
e 138 116 1.0
e 138 83 1.0
e 138 70 1.0
e 138 58 2.0
e 138 148 1.0
e 138 7 1.0
e 139 153 1.0
e 139 113 1.0
e 139 7 1.0
e 139 56 3.0
e 139 141 1.0
e 139 48 1.0
e 139 119 1.0
e 139 123 1.0
e 140 6 1.0
e 140 30 1.0
e 140 63 1.0
e 140 19 2.0
e 140 126 1.0
e 140 141 1.0
e 140 65 2.0
e 140 110 1.0
e 141 87 1.0
e 141 155 1.0
e 141 157 1.0
e 141 122 2.0
e 141 26 1.0
e 141 48 1.0
e 141 126 1.0
e 142 138 2.0
e 142 49 1.0
e 142 64 1.0
e 142 23 1.0
e 142 84 1.0
e 142 118 1.0
e 142 83 1.0
e 142 116 2.0
e 143 45 1.0
e 143 6 1.0
e 143 21 1.0
e 143 128 1.0
e 143 33 2.0
e 143 146 1.0
e 143 79 2.0
e 143 35 2.0
e 144 129 2.0
e 144 87 1.0
e 144 88 2.0
e 144 92 1.0
e 144 110 1.0
e 144 45 1.0
e 144 79 1.0
e 144 114 2.0
e 145 122 1.0
e 145 82 1.0
e 145 132 1.0
e 145 143 1.0
e 145 79 1.0
e 145 36 3.0
e 145 131 1.0
e 145 12 2.0
e 146 105 1.0
e 146 128 1.0
e 146 55 1.0
e 146 79 1.0
e 146 106 1.0
e 146 150 2.0
e 146 111 1.0
e 147 92 3.0
e 147 151 1.0
e 147 14 1.0
e 147 85 31.0
e 147 74 1.0
e 147 144 1.0
e 147 50 1.0
e 147 55 2.0
e 148 121 2.0
e 148 66 1.0
e 148 96 1.0
e 148 16 1.0
e 148 13 1.0
e 148 83 1.0
e 148 43 2.0
e 149 53 1.0
e 149 156 14.0
e 149 120 1.0
e 149 44 2.0
e 149 69 1.0
e 149 37 1.0
e 150 15 1.0
e 150 65 2.0
e 150 62 2.0
e 150 144 1.0
e 150 68 1.0
e 150 137 1.0
e 150 39 1.0
e 151 60 1.0
e 151 29 1.0
e 151 128 1.0
e 151 100 1.0
e 151 53 2.0
e 151 106 1.0
e 151 10 43.0
e 151 101 1.0
e 152 34 2.0
e 152 121 1.0
e 152 3 14.0
e 152 138 1.0
e 152 40 1.0
e 152 143 2.0
e 152 92 2.0
e 153 14 1.0
e 153 12 1.0
e 153 13 2.0
e 153 56 1.0
e 153 149 1.0
e 153 125 1.0
e 153 22 1.0
e 154 51 1.0
e 154 131 1.0
e 154 17 1.0
e 154 115 19.0
e 154 102 1.0
e 154 108 1.0
e 154 104 1.0
e 154 37 1.0
e 155 156 49.0
e 155 93 3.0
e 155 6 1.0
e 155 94 1.0
e 155 35 2.0
e 155 43 1.0
e 155 63 2.0
e 156 58 27.0
e 156 37 23.0
e 156 50 23.0
e 156 150 15.0
e 156 27 22.0
e 156 64 13.0
e 156 77 28.0
e 156 79 13.0
e 157 101 1.0
e 157 71 1.0
e 157 138 2.0
e 157 119 1.0
e 157 39 1.0
e 157 51 1.0
e 157 125 1.0
e 157 128 1.0
e 158 22 1.0
e 158 151 1.0
e 158 75 2.0
e 158 106 1.0
e 158 30 2.0
e 158 48 3.0
e 158 149 1.0
e 158 14 1.0
e 159 100 1.0
e 159 124 1.0
e 159 136 1.0
e 159 27 1.0
e 159 114 1.0
e 159 104 1.0
e 159 149 1.0
e 159 147 1.0
